c colouring generated by benchmark framework
p edge 425 8688
v 1 10
v 2 5
v 3 14
v 4 19
v 5 22
v 6 8
v 7 13
v 8 16
v 9 3
v 10 24
v 11 7
v 12 2
v 13 18
v 14 21
v 15 0
v 16 6
v 17 13
v 18 6
v 19 7
v 20 15
v 21 28
v 22 22
v 23 3
v 24 1
v 25 20
v 26 21
v 27 2
v 28 5
v 29 8
v 30 27
v 31 10
v 32 0
v 33 19
v 34 24
v 35 17
v 36 12
v 37 5
v 38 19
v 39 9
v 40 29
v 41 16
v 42 22
v 43 12
v 44 14
v 45 23
v 46 6
v 47 20
v 48 19
v 49 7
v 50 27
v 51 13
v 52 26
v 53 7
v 54 1
v 55 14
v 56 12
v 57 12
v 58 14
v 59 12
v 60 14
v 61 17
v 62 18
v 63 26
v 64 11
v 65 16
v 66 18
v 67 25
v 68 26
v 69 16
v 70 4
v 71 9
v 72 4
v 73 26
v 74 4
v 75 4
v 76 26
v 77 4
v 78 9
v 79 4
v 80 17
v 81 11
v 82 26
v 83 15
v 84 12
v 85 28
v 86 1
v 87 4
v 88 4
v 89 4
v 90 26
v 91 9
v 92 11
v 93 9
v 94 9
v 95 9
v 96 11
v 97 23
v 98 18
v 99 11
v 100 11
v 101 12
v 102 16
v 103 25
v 104 29
v 105 18
v 106 2
v 107 19
v 108 17
v 109 16
v 110 18
v 111 25
v 112 18
v 113 16
v 114 18
v 115 17
v 116 17
v 117 17
v 118 5
v 119 2
v 120 17
v 121 24
v 122 7
v 123 23
v 124 18
v 125 24
v 126 20
v 127 17
v 128 26
v 129 12
v 130 11
v 131 12
v 132 12
v 133 11
v 134 26
v 135 11
v 136 14
v 137 16
v 138 12
v 139 11
v 140 24
v 141 12
v 142 12
v 143 12
v 144 14
v 145 12
v 146 12
v 147 26
v 148 12
v 149 12
v 150 12
v 151 11
v 152 12
v 153 14
v 154 16
v 155 29
v 156 11
v 157 12
v 158 21
v 159 14
v 160 29
v 161 14
v 162 29
v 163 16
v 164 17
v 165 18
v 166 5
v 167 8
v 168 16
v 169 0
v 170 14
v 171 14
v 172 16
v 173 20
v 174 16
v 175 14
v 176 17
v 177 18
v 178 18
v 179 18
v 180 17
v 181 24
v 182 18
v 183 25
v 184 14
v 185 17
v 186 16
v 187 24
v 188 25
v 189 18
v 190 18
v 191 17
v 192 17
v 193 26
v 194 24
v 195 26
v 196 25
v 197 26
v 198 16
v 199 21
v 200 25
v 201 23
v 202 25
v 203 23
v 204 27
v 205 23
v 206 29
v 207 23
v 208 3
v 209 29
v 210 16
v 211 24
v 212 18
v 213 16
v 214 24
v 215 25
v 216 18
v 217 16
v 218 18
v 219 24
v 220 25
v 221 26
v 222 24
v 223 26
v 224 25
v 225 26
v 226 29
v 227 11
v 228 23
v 229 20
v 230 23
v 231 20
v 232 20
v 233 10
v 234 26
v 235 24
v 236 11
v 237 16
v 238 16
v 239 5
v 240 11
v 241 9
v 242 9
v 243 11
v 244 4
v 245 26
v 246 9
v 247 4
v 248 18
v 249 17
v 250 16
v 251 14
v 252 12
v 253 9
v 254 11
v 255 4
v 256 11
v 257 12
v 258 9
v 259 11
v 260 16
v 261 11
v 262 12
v 263 14
v 264 22
v 265 16
v 266 25
v 267 16
v 268 17
v 269 17
v 270 27
v 271 23
v 272 20
v 273 20
v 274 11
v 275 17
v 276 11
v 277 16
v 278 18
v 279 11
v 280 14
v 281 16
v 282 12
v 283 11
v 284 11
v 285 16
v 286 12
v 287 12
v 288 12
v 289 14
v 290 14
v 291 12
v 292 12
v 293 12
v 294 12
v 295 12
v 296 29
v 297 14
v 298 14
v 299 14
v 300 12
v 301 24
v 302 18
v 303 12
v 304 12
v 305 9
v 306 14
v 307 12
v 308 12
v 309 12
v 310 24
v 311 25
v 312 26
v 313 16
v 314 17
v 315 24
v 316 16
v 317 17
v 318 17
v 319 18
v 320 17
v 321 17
v 322 19
v 323 2
v 324 14
v 325 16
v 326 9
v 327 16
v 328 16
v 329 17
v 330 18
v 331 18
v 332 18
v 333 17
v 334 23
v 335 18
v 336 18
v 337 23
v 338 24
v 339 4
v 340 20
v 341 23
v 342 20
v 343 15
v 344 23
v 345 17
v 346 29
v 347 18
v 348 17
v 349 17
v 350 23
v 351 18
v 352 25
v 353 23
v 354 23
v 355 24
v 356 24
v 357 26
v 358 25
v 359 8
v 360 29
v 361 6
v 362 10
v 363 29
v 364 20
v 365 15
v 366 20
v 367 22
v 368 14
v 369 17
v 370 12
v 371 16
v 372 14
v 373 17
v 374 16
v 375 26
v 376 17
v 377 24
v 378 23
v 379 18
v 380 11
v 381 18
v 382 18
v 383 18
v 384 24
v 385 24
v 386 12
v 387 29
v 388 15
v 389 23
v 390 11
v 391 23
v 392 11
v 393 12
v 394 11
v 395 14
v 396 12
v 397 12
v 398 17
v 399 8
v 400 14
v 401 18
v 402 23
v 403 20
v 404 20
v 405 14
v 406 17
v 407 11
v 408 11
v 409 11
v 410 11
v 411 29
v 412 11
v 413 25
v 414 12
v 415 11
v 416 14
v 417 20
v 418 24
v 419 16
v 420 12
v 421 11
v 422 21
v 423 11
v 424 5
v 425 11
